set Z;
 set Y;
 param A{r in Z, m in Y} default 0, binary;
 var Route{m in Y}, binary;
 minimize cost: sum{m in Y} Route[m];
 subject to covers{r in Z}: sum{m in Y} A[r,m]*Route[m]>=1;
 solve; 
 printf {m in Y:  Route[m] == 1} "%s ", m > "Results.txt";
 data;
set Z:= Z17 ;
set Y:= Y1 Y10 Y5 Y6 Y14 Y11 Y12 Y13 ;
param A := 
[Z17,Y12] 1
;end;
